c CNF file corresponding to a (partial) station packing problem.
p cnf 1948 198
1 2 3 4 5 6 7 8 9 10 11 12 13 14 0
-1 -2 0
-1 -3 0
-1 -4 0
-1 -5 0
-1 -6 0
-1 -7 0
-1 -8 0
-1 -9 0
-1 -10 0
-1 -11 0
-1 -12 0
-1 -13 0
-1 -14 0
-2 -3 0
-2 -4 0
-2 -5 0
-2 -6 0
-2 -7 0
-2 -8 0
-2 -9 0
-2 -10 0
-2 -11 0
-2 -12 0
-2 -13 0
-2 -14 0
-3 -4 0
-3 -5 0
-3 -6 0
-3 -7 0
-3 -8 0
-3 -9 0
-3 -10 0
-3 -11 0
-3 -12 0
-3 -13 0
-3 -14 0
-4 -5 0
-4 -6 0
-4 -7 0
-4 -8 0
-4 -9 0
-4 -10 0
-4 -11 0
-4 -12 0
-4 -13 0
-4 -14 0
-5 -6 0
-5 -7 0
-5 -8 0
-5 -9 0
-5 -10 0
-5 -11 0
-5 -12 0
-5 -13 0
-5 -14 0
-6 -7 0
-6 -8 0
-6 -9 0
-6 -10 0
-6 -11 0
-6 -12 0
-6 -13 0
-6 -14 0
-7 -8 0
-7 -9 0
-7 -10 0
-7 -11 0
-7 -12 0
-7 -13 0
-7 -14 0
-8 -9 0
-8 -10 0
-8 -11 0
-8 -12 0
-8 -13 0
-8 -14 0
-9 -10 0
-9 -11 0
-9 -12 0
-9 -13 0
-9 -14 0
-10 -11 0
-10 -12 0
-10 -13 0
-10 -14 0
-11 -12 0
-11 -13 0
-11 -14 0
-12 -13 0
-12 -14 0
-13 -14 0
1934 1935 1936 1937 1938 1939 1940 1941 1942 1943 1944 1945 1946 1947 1948 0
-1934 -1935 0
-1934 -1936 0
-1934 -1937 0
-1934 -1938 0
-1934 -1939 0
-1934 -1940 0
-1934 -1941 0
-1934 -1942 0
-1934 -1943 0
-1934 -1944 0
-1934 -1945 0
-1934 -1946 0
-1934 -1947 0
-1934 -1948 0
-1935 -1936 0
-1935 -1937 0
-1935 -1938 0
-1935 -1939 0
-1935 -1940 0
-1935 -1941 0
-1935 -1942 0
-1935 -1943 0
-1935 -1944 0
-1935 -1945 0
-1935 -1946 0
-1935 -1947 0
-1935 -1948 0
-1936 -1937 0
-1936 -1938 0
-1936 -1939 0
-1936 -1940 0
-1936 -1941 0
-1936 -1942 0
-1936 -1943 0
-1936 -1944 0
-1936 -1945 0
-1936 -1946 0
-1936 -1947 0
-1936 -1948 0
-1937 -1938 0
-1937 -1939 0
-1937 -1940 0
-1937 -1941 0
-1937 -1942 0
-1937 -1943 0
-1937 -1944 0
-1937 -1945 0
-1937 -1946 0
-1937 -1947 0
-1937 -1948 0
-1938 -1939 0
-1938 -1940 0
-1938 -1941 0
-1938 -1942 0
-1938 -1943 0
-1938 -1944 0
-1938 -1945 0
-1938 -1946 0
-1938 -1947 0
-1938 -1948 0
-1939 -1940 0
-1939 -1941 0
-1939 -1942 0
-1939 -1943 0
-1939 -1944 0
-1939 -1945 0
-1939 -1946 0
-1939 -1947 0
-1939 -1948 0
-1940 -1941 0
-1940 -1942 0
-1940 -1943 0
-1940 -1944 0
-1940 -1945 0
-1940 -1946 0
-1940 -1947 0
-1940 -1948 0
-1941 -1942 0
-1941 -1943 0
-1941 -1944 0
-1941 -1945 0
-1941 -1946 0
-1941 -1947 0
-1941 -1948 0
-1942 -1943 0
-1942 -1944 0
-1942 -1945 0
-1942 -1946 0
-1942 -1947 0
-1942 -1948 0
-1943 -1944 0
-1943 -1945 0
-1943 -1946 0
-1943 -1947 0
-1943 -1948 0
-1944 -1945 0
-1944 -1946 0
-1944 -1947 0
-1944 -1948 0
-1945 -1946 0
-1945 -1947 0
-1945 -1948 0
-1946 -1947 0
-1946 -1948 0
-1947 -1948 0
